10J3M/DAT/10J3MULA-17.dat
10 3
49.0371 2404.6372
34.5861 1196.1983
20.5644 422.8945
33.965 1153.6212
44.4803 1978.4971
25.9975 675.87
10.3208 106.5189
45.9346 2109.9875
19.1137 365.3335
2.056 4.2271
3472.5951