10J3M/SOL/10J3MULA-17.sol
solution status: optimal solution found
objective value:                     95.3518333333333
x#1#1                               0.735423090448065 	(obj:0)
x#1#3                               0.264576909551935 	(obj:0)
x#2#2                                               1 	(obj:0)
x#3#3                                               1 	(obj:0)
x#4#1                                               1 	(obj:0)
x#5#1                               0.152630724354366 	(obj:0)
x#5#2                               0.847369275645634 	(obj:0)
x#6#1                               0.112434128595717 	(obj:0)
x#6#2                               0.887565871404283 	(obj:0)
x#7#1                                               1 	(obj:0)
x#8#3                                               1 	(obj:0)
x#9#1                               0.169247766683366 	(obj:0)
x#9#3                               0.830752233316634 	(obj:0)
x#10#1                                              1 	(obj:0)
z                                    95.3518333333333 	(obj:1)
